\* Problem: Unknown *\

Maximize
 obj: + xp_0_0 + xp_1_0 + xp_1_1 + xp_2_0 + xp_3_0 + xp_3_1 + xp_4_0
 + xp_5_0 + xp_6_0 + xp_7_0 + xp_8_0 + xp_9_0 + xp_9_1 + xp_10_0
 + xp_11_0 + xp_11_1 + xp_12_0 + xp_13_0 + xp_13_1 + xp_14_0 + xp_14_1
 + xp_15_0 + xp_16_0 + xp_17_0 + xp_17_1 + xp_18_0 + xp_18_1 + xp_19_0
 + xp_19_1 + xp_20_0 + xp_21_0 + xp_22_0 + xp_22_1 + xp_23_0 + xp_24_0
 + xp_24_1 + xp_25_0 + xp_26_0 + xp_27_0 + xp_28_0 + xp_28_1 + xp_29_0
 + xp_30_0 + xp_31_0 + xp_32_0 + xp_33_0 + xp_34_0 + xp_34_1 + xp_35_0
 + xp_36_0 + xp_37_0 + xp_38_0 + xp_39_0 + xp_40_0 + xp_40_1 + xp_40_2
 + xp_41_0 + xp_42_0 + xp_42_1 + xp_43_0 + xp_44_0 + xp_45_0 + xp_46_0
 + xp_47_0 + xp_48_0 + xp_48_1 + xp_49_0 + xp_50_0 + xp_50_1 + xp_51_0
 + xp_52_0 + xp_53_0 + xp_54_0 + xp_55_0 + xp_56_0 + xp_57_0 + xp_57_1
 + xp_58_0 + xp_58_1 + xp_59_0 + xp_59_1 + xp_60_0 + xp_60_1 + xp_61_0
 + xp_61_1 + xp_62_0 + xp_63_0 + xp_63_1 + xp_64_0 + xp_65_0 + xp_65_1
 + xp_66_0 + xp_67_0 + xp_67_1 + xp_68_0 + xp_68_1 + xp_69_0 + xp_70_0
 + xp_71_0 + xp_72_0 + xp_73_0 + xp_74_0 + xp_75_0 + xp_76_0 + xp_77_0
 + xp_77_1 + xp_78_0 + xp_78_1 + xp_78_2 + xp_78_3 + xp_78_4 + xp_79_0
 + xp_79_1 + xp_79_2 + xp_80_0 + xp_80_1 + xp_81_0 + xp_81_1 + xp_82_0
 + xp_83_0 + xp_84_0 + xp_85_0 + xp_85_1 + xp_86_0 + xp_86_1 + xp_87_0
 + xp_88_0 + xp_89_0 + xp_90_0 + xp_90_1 + xp_90_2 + xp_91_0 + xp_91_1
 + xp_91_2 + xp_92_0 + xp_93_0 + xp_94_0 + xp_94_1 + xp_95_0 + xp_96_0
 + xp_97_0 + xp_98_0 + xp_98_1 + xp_99_0 + xp_100_0 + xp_101_0
 + xp_102_0 + xp_103_0 + xp_104_0 + xp_105_0 + xp_105_1 + xp_106_0
 + xp_107_0 + xp_108_0 + xp_108_1 + xp_108_2 + xp_109_0 + xp_109_1
 + xp_110_0 + xp_111_0 + xp_111_1 + xp_112_0 + xp_112_1 + xp_112_2
 + xp_113_0 + xp_114_0 + xp_115_0 + xp_115_1 + xp_116_0 + xp_116_1
 + xp_117_0 + xp_118_0 + xp_119_0 + xp_120_0 + xp_120_1 + xp_120_2
 + xp_121_0 + xp_122_0 + xp_123_0 + xp_124_0 + xp_125_0 + xp_125_1
 + xp_126_0 + xp_126_1 + xp_126_2 + xp_126_3 + xp_127_0 + xp_127_1
 + xp_128_0 + xp_128_1 + xp_129_0 + xp_129_1 + xp_130_0 + xp_131_0
 + xp_131_1 + xp_131_2

Subject To
 r_1: + xp_128_1 + xp_122_0 + xp_121_0 + xp_108_2 + xp_107_0 + xp_78_3
 + xp_67_1 + xp_57_1 + xp_40_2 + xp_40_1 + xp_25_0 + xp_22_1 + xp_18_0
 + xp_16_0 + xp_13_1 + xp_4_0 <= 38172.0430107527
 r_2: + xp_131_2 + xp_131_1 + xp_127_1 + xp_126_3 + xp_126_1 + xp_120_2
 + xp_120_0 + xp_94_1 + xp_93_0 + xp_90_1 + xp_85_1 + xp_85_0 + xp_77_1
 + xp_75_0 + xp_71_0 + xp_66_0 + xp_65_1 + xp_65_0 + xp_61_1 + xp_55_0
 + xp_52_0 + xp_48_1 + xp_48_0 + xp_42_1 + xp_32_0 + xp_28_1 + xp_28_0
 + xp_24_0 + xp_19_1 + xp_19_0 + xp_1_1 <= 35332.4753324753
 r_3: + xp_126_3 + xp_114_0 + xp_105_1 + xp_95_0 + xp_91_2 + xp_79_2
 + xp_76_0 + xp_58_1 + xp_48_1 + xp_34_0 <= 39820.1058201058
 r_4: + xp_117_0 + xp_112_2 + xp_91_1 + xp_91_0 + xp_84_0 + xp_79_1
 + xp_79_0 + xp_78_4 + xp_46_0 + xp_43_0 + xp_40_2 + xp_40_1 + xp_40_0
 + xp_34_1 <= 37263.8208537439
 r_5: + xp_130_0 + xp_112_2 + xp_99_0 + xp_86_0 + xp_78_4 + xp_7_0
 + xp_2_0 <= 39820.1058201058
 r_6: + xp_126_3 + xp_126_2 + xp_119_0 + xp_114_0 + xp_95_0 + xp_91_2
 + xp_83_0 + xp_81_0 + xp_79_2 + xp_70_0 + xp_68_1 + xp_58_1 + xp_53_0
 + xp_48_1 + xp_45_0 + xp_34_0 + xp_18_0 <= 39327.3986152324
 r_7: + xp_112_1 + xp_111_1 + xp_104_0 + xp_88_0 + xp_82_0 + xp_81_1
 + xp_78_2 + xp_59_1 + xp_50_1 + xp_44_0 + xp_27_0 + xp_18_1 + xp_3_1
 <= 37263.8208537439
 r_8: + xp_131_2 + xp_131_1 + xp_127_1 + xp_126_3 + xp_126_1 + xp_120_2
 + xp_120_0 + xp_118_0 + xp_103_0 + xp_94_1 + xp_90_1 + xp_77_1
 + xp_71_0 + xp_61_1 + xp_55_0 + xp_42_1 + xp_32_0 + xp_24_0 + xp_1_1
 <= 38172.0430107527
 r_9: + xp_131_0 + xp_127_0 + xp_122_0 + xp_120_1 + xp_108_2 + xp_78_3
 + xp_77_0 + xp_67_1 + xp_57_1 + xp_42_0 + xp_33_0 + xp_24_1 <= 40000
 r_10: + xp_112_2 + xp_112_1 + xp_111_1 + xp_106_0 + xp_99_0 + xp_98_0
 + xp_94_1 + xp_88_0 + xp_86_0 + xp_85_0 + xp_78_4 + xp_78_2 + xp_59_1
 + xp_50_1 + xp_26_0 + xp_24_0 + xp_8_0 + xp_7_0 + xp_3_1 + xp_2_0
 <= 39327.3986152324
 r_11: + xp_119_0 + xp_112_0 + xp_111_0 + xp_95_0 + xp_91_2 + xp_81_0
 + xp_79_2 + xp_78_3 + xp_78_1 + xp_78_0 + xp_59_0 + xp_53_0 + xp_50_0
 + xp_49_0 + xp_45_0 + xp_34_0 + xp_18_0 + xp_4_0 + xp_3_0
 <= 36778.2691092862
 r_12: + xp_129_0 + xp_128_0 + xp_123_0 + xp_117_0 + xp_112_2 + xp_112_1
 + xp_111_1 + xp_108_1 + xp_101_0 + xp_91_1 + xp_82_0 + xp_81_1
 + xp_80_1 + xp_79_1 + xp_78_4 + xp_78_2 + xp_78_0 + xp_73_0 + xp_63_1
 + xp_60_0 + xp_50_1 + xp_46_0 + xp_44_0 + xp_40_2 + xp_40_0 + xp_18_1
 + xp_17_1 + xp_15_0 + xp_14_1 + xp_13_0 + xp_9_0 <= 36378.8140472078
 r_13: + xp_129_1 + xp_128_1 + xp_120_2 + xp_120_1 + xp_109_1 + xp_100_0
 + xp_91_0 + xp_90_0 + xp_80_0 + xp_79_0 + xp_68_0 + xp_63_0 + xp_60_1
 + xp_59_1 + xp_40_1 + xp_34_1 + xp_31_0 + xp_30_0 + xp_17_0 + xp_13_1
 + xp_9_1 <= 36778.2691092862
 r_14: + xp_131_2 + xp_131_1 + xp_131_0 + xp_126_3 + xp_126_2 + xp_125_1
 + xp_125_0 + xp_124_0 + xp_115_1 + xp_115_0 + xp_98_1 + xp_94_0
 + xp_86_1 + xp_85_1 + xp_77_1 + xp_77_0 + xp_68_1 + xp_65_1 + xp_65_0
 + xp_58_1 + xp_56_0 + xp_51_0 + xp_48_1 + xp_41_0 + xp_38_0 + xp_35_0
 + xp_24_1 + xp_20_0 + xp_19_1 + xp_19_0 + xp_12_0 + xp_0_0
 <= 37263.8208537439
 r_15: + xp_131_2 + xp_131_0 + xp_126_3 + xp_126_2 + xp_125_0 + xp_124_0
 + xp_120_2 + xp_120_1 + xp_116_0 + xp_115_0 + xp_109_1 + xp_98_1
 + xp_94_0 + xp_90_0 + xp_89_0 + xp_86_1 + xp_85_1 + xp_77_1 + xp_77_0
 + xp_68_1 + xp_68_0 + xp_65_0 + xp_58_1 + xp_51_0 + xp_48_1 + xp_42_1
 + xp_42_0 + xp_38_0 + xp_36_0 + xp_28_1 + xp_24_1 + xp_19_1 + xp_12_0
 + xp_11_0 + xp_0_0 <= 36378.8140472078
 r_16: + xp_128_0 + xp_123_0 + xp_108_1 + xp_108_0 + xp_78_4 + xp_78_2
 + xp_78_1 + xp_78_0 + xp_73_0 + xp_67_0 + xp_57_0 + xp_46_0 + xp_44_0
 + xp_40_0 + xp_22_0 + xp_18_1 + xp_13_0 + xp_6_0 <= 36378.8140472078
 r_17: + xp_129_0 + xp_126_0 + xp_112_2 + xp_112_1 + xp_111_1 + xp_109_0
 + xp_97_0 + xp_91_1 + xp_90_2 + xp_81_1 + xp_80_1 + xp_79_1 + xp_63_1
 + xp_62_0 + xp_61_0 + xp_60_0 + xp_47_0 + xp_40_2 + xp_22_1 + xp_17_1
 + xp_9_0 + xp_1_0 <= 35332.4753324753
 r_18: + xp_126_1 + xp_126_0 + xp_106_0 + xp_99_0 + xp_98_0 + xp_94_1
 + xp_92_0 + xp_86_0 + xp_85_0 + xp_68_0 + xp_58_0 + xp_48_0 + xp_32_0
 + xp_30_0 + xp_26_0 + xp_24_0 + xp_5_0 + xp_2_0 <= 36778.2691092862
 r_19: + xp_131_1 + xp_125_1 + xp_116_1 + xp_115_1 + xp_110_0 + xp_108_1
 + xp_78_0 + xp_65_1 + xp_56_0 + xp_28_0 + xp_19_0 + xp_14_1 + xp_11_1
 + xp_3_0 <= 36778.2691092862
 r_20: + xp_129_1 + xp_128_1 + xp_119_0 + xp_112_0 + xp_111_0 + xp_108_2
 + xp_108_0 + xp_107_0 + xp_95_0 + xp_91_2 + xp_91_0 + xp_81_0 + xp_80_0
 + xp_79_2 + xp_79_0 + xp_78_3 + xp_78_1 + xp_69_0 + xp_64_0 + xp_63_0
 + xp_60_1 + xp_50_0 + xp_49_0 + xp_45_0 + xp_40_1 + xp_18_0 + xp_17_0
 + xp_14_0 + xp_13_1 + xp_10_0 + xp_9_1 + xp_4_0 <= 35332.4753324753
 r_21: + xp_126_3 + xp_113_0 + xp_105_1 + xp_86_1 + xp_77_1 + xp_77_0
 + xp_65_1 + xp_65_0 + xp_58_1 + xp_48_1 + xp_38_0 + xp_20_0 + xp_0_0
 <= 37263.8208537439
 r_22: + xp_126_2 + xp_124_0 + xp_105_0 + xp_98_1 + xp_94_0 + xp_85_1
 + xp_83_0 + xp_68_1 + xp_41_0 + xp_24_1 <= 37263.8208537439
 r_23: + xp_128_1 + xp_128_0 + xp_117_0 + xp_112_2 + xp_112_1 + xp_111_1
 + xp_104_0 + xp_100_0 + xp_91_1 + xp_91_0 + xp_84_0 + xp_82_0 + xp_81_1
 + xp_80_1 + xp_80_0 + xp_79_1 + xp_79_0 + xp_78_4 + xp_78_2 + xp_73_0
 + xp_60_1 + xp_60_0 + xp_59_1 + xp_50_1 + xp_46_0 + xp_44_0 + xp_40_2
 + xp_40_1 + xp_40_0 + xp_34_1 + xp_21_0 + xp_18_1 + xp_15_0 + xp_9_1
 + xp_9_0 + xp_3_1 <= 37263.8208537439
 r_24: + xp_128_0 + xp_126_3 + xp_126_1 + xp_103_0 + xp_94_1 + xp_90_1
 + xp_61_1 + xp_40_0 + xp_39_0 + xp_22_0 + xp_18_1 + xp_13_0 + xp_1_1
 <= 40000
 r_25: + xp_131_0 + xp_127_0 + xp_126_2 + xp_126_0 + xp_120_1 + xp_94_0
 + xp_90_2 + xp_90_0 + xp_89_0 + xp_77_0 + xp_74_0 + xp_61_0 + xp_42_0
 + xp_38_0 + xp_24_1 + xp_12_0 + xp_1_0 <= 36378.8140472078
 r_26: + xp_128_1 + xp_121_0 + xp_112_2 + xp_112_1 + xp_112_0 + xp_108_2
 + xp_107_0 + xp_81_1 + xp_81_0 + xp_79_2 + xp_79_1 + xp_79_0 + xp_78_3
 + xp_67_1 + xp_64_0 + xp_60_1 + xp_60_0 + xp_57_1 + xp_47_0 + xp_40_2
 + xp_40_1 + xp_37_0 + xp_29_0 + xp_25_0 + xp_22_1 + xp_18_0 + xp_17_1
 + xp_17_0 + xp_13_1 + xp_4_0 <= 35332.4753324753
 r_27: + xp_131_2 + xp_127_1 + xp_126_3 + xp_125_0 + xp_120_2 + xp_116_0
 + xp_115_0 + xp_108_0 + xp_98_1 + xp_86_1 + xp_85_1 + xp_78_1 + xp_77_1
 + xp_72_0 + xp_67_0 + xp_65_0 + xp_58_1 + xp_57_0 + xp_52_0 + xp_50_0
 + xp_48_1 + xp_42_1 + xp_28_1 + xp_23_0 + xp_19_1 + xp_14_0 + xp_11_0
 <= 35332.4753324753
 r_28: + xp_131_1 + xp_126_1 + xp_126_0 + xp_125_1 + xp_120_0 + xp_116_1
 + xp_115_1 + xp_109_0 + xp_99_0 + xp_98_0 + xp_96_0 + xp_94_1 + xp_92_0
 + xp_90_2 + xp_90_1 + xp_86_0 + xp_85_0 + xp_75_0 + xp_65_1 + xp_58_0
 + xp_54_0 + xp_48_0 + xp_32_0 + xp_28_0 + xp_26_0 + xp_24_0 + xp_19_0
 + xp_11_1 <= 35332.4753324753
 r_29: + xp_129_1 + xp_129_0 + xp_95_0 + xp_93_0 + xp_87_0 + xp_71_0
 + xp_62_0 + xp_49_0 + xp_45_0 + xp_10_0 + xp_9_1 + xp_9_0 + xp_1_1
 + xp_1_0 <= 35332.4753324753
 r_30: + xp_125_1 + xp_125_0 + xp_121_0 + xp_102_0 + xp_99_0 + xp_96_0
 + xp_92_0 + xp_57_1 + xp_57_0 + xp_37_0 + xp_26_0 + xp_23_0 + xp_11_1
 + xp_11_0 <= 35332.4753324753

Bounds
 0 <= xp_0_0 <= 236.319180243089
 0 <= xp_1_0 <= 137.137736579614
 0 <= xp_1_1 <= 45.7125788598713
 0 <= xp_2_0 <= 115.189097632456
 0 <= xp_3_0 <= 136.939703747008
 0 <= xp_3_1 <= 45.6465679156694
 0 <= xp_4_0 <= 790.084991153502
 0 <= xp_5_0 <= 1085.02188984795
 0 <= xp_6_0 <= 1794.63954001924
 0 <= xp_7_0 <= 639.249983651977
 0 <= xp_8_0 <= 1512.04668789056
 0 <= xp_9_0 <= 40.6462388923694
 0 <= xp_9_1 <= 67.7437314872822
 0 <= xp_10_0 <= 54.9211055760476
 0 <= xp_11_0 <= 31.1901711354357
 0 <= xp_11_1 <= 10.3967237118119
 0 <= xp_12_0 <= 2070.30124300671
 0 <= xp_13_0 <= 220.814859723649
 0 <= xp_13_1 <= 31.5449799605213
 0 <= xp_14_0 <= 82.6044453007531
 0 <= xp_14_1 <= 137.674075501255
 0 <= xp_15_0 <= 507.888204690036
 0 <= xp_16_0 <= 2644.99252322915
 0 <= xp_17_0 <= 185.944578448953
 0 <= xp_17_1 <= 111.566747069372
 0 <= xp_18_0 <= 179.780806534093
 0 <= xp_18_1 <= 179.780806534093
 0 <= xp_19_0 <= 662.667366107629
 0 <= xp_19_1 <= 397.600419664578
 0 <= xp_20_0 <= 128.457297417054
 0 <= xp_21_0 <= 274.935582601248
 0 <= xp_22_0 <= 617.037300928011
 0 <= xp_22_1 <= 617.037300928011
 0 <= xp_23_0 <= 52.0826349753624
 0 <= xp_24_0 <= 213.256606612523
 0 <= xp_24_1 <= 127.953963967514
 0 <= xp_25_0 <= 579.774122925993
 0 <= xp_26_0 <= 15.3805499990614
 0 <= xp_27_0 <= 338.504121867755
 0 <= xp_28_0 <= 417.931790478788
 0 <= xp_28_1 <= 250.759074287273
 0 <= xp_29_0 <= 2452.30657710357
 0 <= xp_30_0 <= 183.708457714111
 0 <= xp_31_0 <= 190.969661576329
 0 <= xp_32_0 <= 2255.39593054906
 0 <= xp_33_0 <= 8074.92077139564
 0 <= xp_34_0 <= 319.905538338847
 0 <= xp_34_1 <= 191.943323003308
 0 <= xp_35_0 <= 261.535360928246
 0 <= xp_36_0 <= 319.558980881786
 0 <= xp_37_0 <= 365.568608990567
 0 <= xp_38_0 <= 335.467618434464
 0 <= xp_39_0 <= 1576.47336943169
 0 <= xp_40_0 <= 425.407529909662
 0 <= xp_40_1 <= 319.055647432246
 0 <= xp_40_2 <= 106.351882477415
 0 <= xp_41_0 <= 80.0712753170021
 0 <= xp_42_0 <= 398.194518162396
 0 <= xp_42_1 <= 56.8849311660565
 0 <= xp_43_0 <= 493.035742244591
 0 <= xp_44_0 <= 459.502182589985
 0 <= xp_45_0 <= 42.6430699544793
 0 <= xp_46_0 <= 1608.75272114646
 0 <= xp_47_0 <= 880.718017542821
 0 <= xp_48_0 <= 2548.29474134127
 0 <= xp_48_1 <= 364.042105905896
 0 <= xp_49_0 <= 88.2566323980476
 0 <= xp_50_0 <= 491.203938542986
 0 <= xp_50_1 <= 294.722363125791
 0 <= xp_51_0 <= 711.003879999529
 0 <= xp_52_0 <= 663.740043950912
 0 <= xp_53_0 <= 190.309552134309
 0 <= xp_54_0 <= 3701.03560857243
 0 <= xp_55_0 <= 1187.60289713783
 0 <= xp_56_0 <= 95.9799128696793
 0 <= xp_57_0 <= 180.67195428082
 0 <= xp_57_1 <= 25.8102791829743
 0 <= xp_58_0 <= 3986.33490941339
 0 <= xp_58_1 <= 569.476415630484
 0 <= xp_59_0 <= 9332.85007821266
 0 <= xp_59_1 <= 1333.26429688752
 0 <= xp_60_0 <= 254.719730939391
 0 <= xp_60_1 <= 424.532884898986
 0 <= xp_61_0 <= 1515.65253571759
 0 <= xp_61_1 <= 909.391521430556
 0 <= xp_62_0 <= 131.493800850345
 0 <= xp_63_0 <= 115.576911929642
 0 <= xp_63_1 <= 16.5109874185203
 0 <= xp_64_0 <= 996.435202728892
 0 <= xp_65_0 <= 458.033439081491
 0 <= xp_65_1 <= 65.433348440213
 0 <= xp_66_0 <= 1683.4771099831
 0 <= xp_67_0 <= 253.399512055352
 0 <= xp_67_1 <= 152.039707233211
 0 <= xp_68_0 <= 1107.30058351612
 0 <= xp_68_1 <= 369.100194505373
 0 <= xp_69_0 <= 1722.15952328546
 0 <= xp_70_0 <= 632.978943952789
 0 <= xp_71_0 <= 71.0277759613308
 0 <= xp_72_0 <= 600.303526572809
 0 <= xp_73_0 <= 924.945350158148
 0 <= xp_74_0 <= 955.244373546857
 0 <= xp_75_0 <= 1767.70707478483
 0 <= xp_76_0 <= 1725.72411427237
 0 <= xp_77_0 <= 501.699678671101
 0 <= xp_77_1 <= 71.6713826673001
 0 <= xp_78_0 <= 3506.57561832142
 0 <= xp_78_1 <= 3506.57561832142
 0 <= xp_78_2 <= 10519.7268549643
 0 <= xp_78_3 <= 7013.15123664284
 0 <= xp_78_4 <= 3506.57561832142
 0 <= xp_79_0 <= 533.962527649818
 0 <= xp_79_1 <= 400.471895737364
 0 <= xp_79_2 <= 133.490631912455
 0 <= xp_80_0 <= 141.263420592238
 0 <= xp_80_1 <= 84.7580523553427
 0 <= xp_81_0 <= 228.843440812215
 0 <= xp_81_1 <= 32.6919201160307
 0 <= xp_82_0 <= 220.34453174621
 0 <= xp_83_0 <= 505.115745033553
 0 <= xp_84_0 <= 892.269932778167
 0 <= xp_85_0 <= 307.297447996269
 0 <= xp_85_1 <= 102.432482665423
 0 <= xp_86_0 <= 107.432811688723
 0 <= xp_86_1 <= 64.4596870132337
 0 <= xp_87_0 <= 141.65948625745
 0 <= xp_88_0 <= 426.364688600591
 0 <= xp_89_0 <= 2226.8131917096
 0 <= xp_90_0 <= 13601.2662549372
 0 <= xp_90_1 <= 5440.50650197486
 0 <= xp_90_2 <= 2720.25325098743
 0 <= xp_91_0 <= 1023.30990838712
 0 <= xp_91_1 <= 1364.41321118283
 0 <= xp_91_2 <= 341.103302795708
 0 <= xp_92_0 <= 67.067119309212
 0 <= xp_93_0 <= 130.833691408325
 0 <= xp_94_0 <= 208.049993388591
 0 <= xp_94_1 <= 29.7214276269416
 0 <= xp_95_0 <= 61.5221999962456
 0 <= xp_96_0 <= 115.783196130273
 0 <= xp_97_0 <= 529.143728723074
 0 <= xp_98_0 <= 125.569318608217
 0 <= xp_98_1 <= 17.9384740868881
 0 <= xp_99_0 <= 16.4367251062931
 0 <= xp_100_0 <= 504.917712200947
 0 <= xp_101_0 <= 250.841587967525
 0 <= xp_102_0 <= 75.2524763902575
 0 <= xp_103_0 <= 1445.37563424656
 0 <= xp_104_0 <= 132.417954069172
 0 <= xp_105_0 <= 1273.59865469696
 0 <= xp_105_1 <= 181.942664956708
 0 <= xp_106_0 <= 41.5868948472476
 0 <= xp_107_0 <= 451.514858341545
 0 <= xp_108_0 <= 213.099830620043
 0 <= xp_108_1 <= 319.649745930064
 0 <= xp_108_2 <= 319.649745930064
 0 <= xp_109_0 <= 606.558063535946
 0 <= xp_109_1 <= 363.934838121568
 0 <= xp_110_0 <= 133.738172953212
 0 <= xp_111_0 <= 2569.37698664578
 0 <= xp_111_1 <= 367.053855235111
 0 <= xp_112_0 <= 3524.83589576129
 0 <= xp_112_1 <= 587.472649293549
 0 <= xp_112_2 <= 587.472649293549
 0 <= xp_113_0 <= 427.090808986812
 0 <= xp_114_0 <= 2407.28711315782
 0 <= xp_115_0 <= 138.622982824159
 0 <= xp_115_1 <= 83.1737896944951
 0 <= xp_116_0 <= 100.212864666631
 0 <= xp_116_1 <= 60.1277187999788
 0 <= xp_117_0 <= 1950.95345588953
 0 <= xp_118_0 <= 3167.20510281101
 0 <= xp_119_0 <= 63.0404517128912
 0 <= xp_120_0 <= 1633.67185258271
 0 <= xp_120_1 <= 272.278642097118
 0 <= xp_120_2 <= 272.278642097118
 0 <= xp_121_0 <= 75.8465748880753
 0 <= xp_122_0 <= 2283.78063655591
 0 <= xp_123_0 <= 515.875528938476
 0 <= xp_124_0 <= 138.226917158947
 0 <= xp_125_0 <= 13.6972709219109
 0 <= xp_125_1 <= 13.6972709219109
 0 <= xp_126_0 <= 3184.95379543332
 0 <= xp_126_1 <= 9554.86138629996
 0 <= xp_126_2 <= 9554.86138629996
 0 <= xp_126_3 <= 3184.95379543332
 0 <= xp_127_0 <= 434.33551011298
 0 <= xp_127_1 <= 144.778503370993
 0 <= xp_128_0 <= 254.84350145977
 0 <= xp_128_1 <= 152.906100875862
 0 <= xp_129_0 <= 18.4418075364282
 0 <= xp_129_1 <= 30.7363458940471
 0 <= xp_130_0 <= 405.241186455957
 0 <= xp_131_0 <= 289.053673292446
 0 <= xp_131_1 <= 289.053673292446
 0 <= xp_131_2 <= 192.702448861631

End
